
Gurobi 7.0.2 (win64, Python) logging started 09/06/17 18:30:18

Parameter OutputFlag unchanged
   Value: 1  Min: 0  Max: 1  Default: 1
Parameter OutputFlag unchanged
   Value: 1  Min: 0  Max: 1  Default: 1
Parameter OutputFlag unchanged
   Value: 1  Min: 0  Max: 1  Default: 1
Parameter OutputFlag unchanged
   Value: 1  Min: 0  Max: 1  Default: 1
Parameter OutputFlag unchanged
   Value: 1  Min: 0  Max: 1  Default: 1
Parameter OutputFlag unchanged
   Value: 1  Min: 0  Max: 1  Default: 1
Parameter OutputFlag unchanged
   Value: 1  Min: 0  Max: 1  Default: 1
